8	8
2	6	0	7	5	1	1	2	7	4	4	5	6	7	3	5
2	1	0	8	6	9	7	2	3	8	5	6	1	4	4	4
7	9	3	7	6	4	4	9	2	9	0	6	1	6	5	6
4	3	5	5	0	7	2	8	3	4	7	1	6	4	1	6
6	9	0	6	2	5	4	4	1	2	3	3	7	2	5	8
6	8	4	8	7	9	5	8	2	2	3	7	0	4	1	4
0	5	2	1	3	5	4	4	7	7	6	6	1	9	5	7
6	7	3	7	7	9	2	8	4	1	5	6	1	9	0	1
